NAME : ftv44.tour
COMMENT : Optimum tour for ftv44.tsp (Length 1613)
TYPE : TOUR
DIMENSION : 45
TOUR_SECTION  
0
0
0
0
0
0
0
0
0
0
0
0
0
0
0
0
0
0
0
0
0
0
0
0
0
0
0
0
0
0
0
0
0
0
0
0
0
0
0
0
0
0
0
0
0
-1
EOF
